161
1613
113
0 3
0 6
0 9
0 11
0 26
0 28
0 30
0 32
0 36
0 62
0 69
0 81
0 96
0 148
1 2
1 7
1 12
1 76
1 77
1 84
1 88
2 7
2 12
2 15
2 16
2 19
2 22
2 23
2 28
2 30
2 36
2 39
2 42
2 43
2 45
2 62
2 76
2 77
2 84
2 88
2 112
2 153
3 6
3 9
3 11
3 24
3 27
3 31
3 34
3 35
3 37
3 52
3 69
3 81
4 5
4 8
4 10
4 17
4 18
4 20
4 21
4 29
4 32
4 33
4 44
4 78
4 79
4 80
4 82
4 102
4 114
4 137
4 140
5 8
5 10
5 17
5 18
5 20
5 21
5 29
5 32
5 33
5 44
6 9
6 11
6 24
6 27
6 31
6 34
6 35
6 37
6 52
6 55
6 59
6 66
6 69
6 72
6 81
6 157
7 12
7 15
7 16
7 19
7 22
7 23
7 28
7 30
7 36
7 46
7 47
7 57
7 62
7 75
7 76
7 77
7 84
7 88
8 10
8 17
8 18
8 20
8 21
8 29
8 32
8 33
8 35
8 44
8 71
8 73
8 83
8 85
8 86
8 89
8 92
8 104
8 145
9 11
9 24
9 27
9 31
9 34
9 35
9 37
9 45
9 52
9 56
9 65
9 67
9 69
9 74
9 81
9 98
9 103
9 105
9 107
9 120
9 156
9 158
9 159
10 17
10 18
10 20
10 21
10 29
10 32
10 33
10 44
10 66
10 71
10 73
10 83
10 85
10 86
10 93
10 105
10 106
11 24
11 27
11 31
11 34
11 35
11 37
11 45
11 52
11 56
11 65
11 67
11 69
11 74
11 81
11 98
11 103
11 107
12 15
12 16
12 19
12 22
12 23
12 28
12 30
12 36
12 46
12 47
12 57
12 62
12 75
12 76
12 77
12 84
12 88
12 110
12 115
12 119
12 120
12 122
13 17
13 18
13 20
13 21
13 32
13 44
13 49
13 108
13 124
14 24
14 38
14 41
14 50
14 52
14 109
14 150
15 16
15 19
15 22
15 23
15 28
15 30
15 36
15 62
15 77
15 84
16 19
16 22
16 23
16 28
16 30
16 36
16 39
16 42
16 43
16 45
16 48
16 54
16 62
16 64
16 77
16 84
16 101
16 112
16 115
16 141
16 152
16 153
17 18
17 20
17 21
17 29
17 32
17 33
17 44
17 49
17 78
17 79
17 80
17 82
17 102
17 108
17 114
17 124
17 137
17 140
18 20
18 21
18 29
18 32
18 33
18 44
18 49
18 108
18 124
19 22
19 23
19 28
19 30
19 36
19 39
19 42
19 43
19 45
19 48
19 54
19 62
19 64
19 69
19 71
19 73
19 77
19 84
19 101
19 112
19 115
19 141
19 152
19 153
20 21
20 29
20 32
20 33
20 44
20 49
20 71
20 73
20 83
20 85
20 86
20 108
20 124
21 29
21 32
21 33
21 44
21 49
21 71
21 73
21 83
21 85
21 86
21 90
21 91
21 108
21 113
21 118
21 119
21 124
21 131
21 136
21 143
21 158
22 23
22 28
22 30
22 36
22 46
22 47
22 57
22 62
22 75
22 77
22 84
23 24
23 28
23 30
23 36
23 46
23 47
23 57
23 62
23 75
23 77
23 84
23 110
23 115
23 119
23 120
23 122
23 129
23 154
23 155
24 27
24 31
24 34
24 35
24 37
24 38
24 41
24 45
24 50
24 52
24 56
24 65
24 67
24 74
24 81
24 98
24 103
24 107
24 109
24 119
24 129
24 150
24 154
24 155
25 29
25 33
25 38
25 39
25 58
25 94
25 146
26 28
26 30
26 32
26 36
26 62
26 96
26 148
27 31
27 34
27 35
27 37
27 49
27 50
27 52
27 57
27 61
27 63
27 64
27 75
27 78
27 81
27 95
27 97
27 99
27 101
27 115
27 138
27 141
27 147
27 152
28 30
28 32
28 36
28 62
28 77
28 84
28 96
28 148
29 32
29 33
29 38
29 39
29 44
29 58
29 68
29 70
29 72
29 74
29 75
29 78
29 79
29 80
29 82
29 94
29 102
29 114
29 137
29 140
29 146
30 32
30 36
30 39
30 42
30 43
30 45
30 62
30 77
30 84
30 96
30 112
30 148
30 153
31 34
31 35
31 37
31 52
31 81
32 33
32 36
32 44
32 49
32 62
32 96
32 108
32 124
32 148
33 38
33 39
33 44
33 58
33 94
33 146
34 35
34 37
34 52
34 55
34 59
34 66
34 72
34 81
34 157
35 37
35 52
35 55
35 59
35 66
35 72
35 73
35 81
35 85
35 86
35 89
35 92
35 102
35 104
35 105
35 106
35 145
35 157
36 46
36 47
36 57
36 62
36 75
36 77
36 84
36 96
36 110
36 115
36 119
36 120
36 122
36 148
37 45
37 52
37 56
37 65
37 67
37 74
37 81
37 98
37 103
37 107
38 39
38 40
38 41
38 44
38 49
38 50
38 52
38 58
38 94
38 95
38 108
38 109
38 124
38 125
38 146
38 147
38 150
39 42
39 43
39 45
39 51
39 53
39 55
39 56
39 58
39 60
39 62
39 68
39 72
39 74
39 80
39 94
39 96
39 110
39 112
39 126
39 135
39 136
39 146
39 148
39 149
39 153
40 41
40 44
40 49
40 50
40 52
40 95
40 108
40 109
40 124
40 125
40 147
40 150
41 44
41 49
41 50
41 52
41 95
41 108
41 109
41 124
41 125
41 147
41 150
42 43
42 45
42 48
42 54
42 62
42 64
42 101
42 112
42 115
42 141
42 152
42 153
43 45
43 48
43 54
43 62
43 64
43 69
43 71
43 73
43 101
43 112
43 115
43 141
43 152
43 153
44 49
44 50
44 52
44 95
44 108
44 109
44 124
44 125
44 147
44 150
45 51
45 53
45 55
45 56
45 62
45 65
45 67
45 68
45 72
45 74
45 80
45 98
45 103
45 107
45 112
45 144
45 150
45 151
45 153
45 160
46 47
46 57
46 75
46 84
47 57
47 75
47 84
47 113
47 114
47 116
47 117
47 118
47 121
48 54
48 59
48 64
48 69
48 71
48 73
48 76
48 77
48 81
48 84
48 87
48 88
48 101
48 115
48 123
48 134
48 141
48 152
48 153
49 50
49 52
49 57
49 61
49 75
49 78
49 95
49 97
49 108
49 109
49 124
49 125
49 147
49 150
50 52
50 57
50 61
50 75
50 78
50 95
50 97
50 108
50 109
50 124
50 125
50 147
50 150
51 53
51 55
51 56
51 58
51 60
51 62
51 68
51 72
51 74
51 80
51 94
51 96
51 110
51 112
51 126
51 135
51 136
51 146
51 148
51 149
52 57
52 61
52 75
52 78
52 81
52 95
52 97
52 108
52 109
52 124
52 125
52 147
52 150
53 55
53 56
53 68
53 72
53 74
53 80
53 112
54 64
54 101
54 115
54 141
54 152
54 153
55 56
55 59
55 66
55 68
55 72
55 74
55 80
55 112
55 157
56 65
56 67
56 68
56 72
56 74
56 80
56 98
56 103
56 107
56 112
57 61
57 75
57 78
57 84
57 95
57 97
57 110
57 115
57 119
57 120
57 122
57 147
58 60
58 62
58 68
58 94
58 96
58 110
58 126
58 135
58 136
58 146
58 148
58 149
59 66
59 69
59 72
59 76
59 77
59 81
59 84
59 87
59 88
59 102
59 104
59 105
59 106
59 114
59 116
59 123
59 128
59 134
59 137
59 140
59 154
59 157
60 62
60 68
60 94
60 96
60 110
60 126
60 135
60 136
60 146
60 148
60 149
61 63
61 64
61 75
61 78
61 95
61 97
61 99
61 101
61 115
61 138
61 141
61 147
61 152
62 68
62 77
62 84
62 94
62 96
62 110
62 112
62 126
62 135
62 136
62 146
62 148
62 149
62 153
63 64
63 95
63 97
63 99
63 101
63 115
63 138
63 141
63 147
63 152
64 95
64 97
64 99
64 101
64 115
64 138
64 141
64 147
64 152
64 153
65 67
65 74
65 98
65 103
65 107
65 144
65 150
65 151
65 153
65 160
66 72
66 93
66 102
66 104
66 105
66 106
66 135
66 138
66 139
66 141
66 144
66 157
67 74
67 98
67 103
67 107
68 70
68 72
68 74
68 75
68 78
68 79
68 80
68 94
68 96
68 110
68 112
68 126
68 135
68 136
68 137
68 146
68 148
68 149
69 71
69 73
69 76
69 77
69 81
69 84
69 87
69 88
69 123
69 134
70 72
70 74
70 75
70 78
70 79
70 80
70 137
71 73
71 83
71 85
71 86
71 90
71 91
71 113
71 118
71 119
71 131
71 136
71 143
71 158
72 74
72 75
72 78
72 79
72 80
72 112
72 137
72 157
73 83
73 85
73 86
73 89
73 92
73 104
73 145
74 75
74 78
74 79
74 80
74 98
74 103
74 107
74 112
74 137
75 78
75 79
75 80
75 84
75 95
75 97
75 110
75 115
75 119
75 120
75 122
75 137
75 147
76 77
76 81
76 84
76 87
76 88
76 123
76 134
77 81
77 84
77 87
77 88
77 123
77 134
78 79
78 80
78 82
78 95
78 97
78 102
78 114
78 137
78 140
78 147
79 80
79 82
79 102
79 114
79 137
79 140
80 82
80 102
80 112
80 114
80 137
80 140
81 84
81 87
81 88
81 123
81 134
82 102
82 114
82 137
82 140
83 85
83 86
84 87
84 88
84 123
84 134
85 86
85 89
85 92
85 104
85 124
85 125
85 132
85 145
85 159
86 89
86 92
86 104
86 145
87 88
87 102
87 114
87 116
87 123
87 128
87 134
87 137
87 140
87 154
88 102
88 114
88 116
88 123
88 128
88 134
88 137
88 140
88 154
89 92
89 98
89 104
89 108
89 109
89 111
89 112
89 124
89 125
89 132
89 145
89 150
89 151
89 153
89 159
90 91
90 94
90 95
90 96
90 97
90 98
90 99
90 100
90 101
90 103
90 107
90 113
90 118
90 119
90 131
90 136
90 143
90 158
91 113
91 118
91 119
91 131
91 136
91 143
91 158
92 104
92 124
92 125
92 132
92 145
92 159
93 105
93 106
94 95
94 96
94 97
94 98
94 99
94 100
94 101
94 103
94 107
94 110
94 113
94 126
94 135
94 136
94 146
94 148
94 149
95 96
95 97
95 98
95 99
95 100
95 101
95 103
95 107
95 108
95 109
95 113
95 115
95 124
95 125
95 136
95 138
95 141
95 147
95 150
95 152
96 97
96 98
96 99
96 100
96 101
96 103
96 107
96 110
96 113
96 126
96 135
96 136
96 146
96 148
96 149
97 98
97 99
97 100
97 101
97 103
97 107
97 113
97 115
97 136
97 138
97 141
97 147
97 152
98 99
98 100
98 101
98 103
98 107
98 108
98 109
98 111
98 112
98 113
98 124
98 125
98 136
98 144
98 150
98 151
98 153
98 160
99 100
99 101
99 103
99 107
99 113
99 115
99 136
99 138
99 141
99 147
99 152
100 101
100 103
100 107
100 113
100 136
101 103
101 107
101 113
101 115
101 136
101 138
101 141
101 147
101 152
101 153
102 104
102 105
102 106
102 114
102 116
102 123
102 128
102 134
102 137
102 140
102 154
103 107
103 113
103 136
103 144
103 150
103 151
103 153
103 160
104 105
104 106
104 145
105 106
105 120
105 135
105 138
105 139
105 141
105 144
105 156
105 158
105 159
106 135
106 138
106 139
106 141
106 144
107 113
107 136
108 109
108 111
108 112
108 124
108 125
108 147
108 150
108 151
108 153
109 111
109 112
109 124
109 125
109 147
109 150
109 151
109 153
110 115
110 119
110 120
110 122
110 126
110 127
110 135
110 136
110 138
110 139
110 141
110 146
110 147
110 148
110 149
110 152
110 157
111 112
111 124
111 125
111 150
111 151
111 153
112 124
112 125
112 150
112 151
112 153
113 114
113 116
113 117
113 118
113 119
113 121
113 123
113 128
113 130
113 131
113 136
113 143
113 156
113 158
114 116
114 117
114 118
114 121
114 123
114 128
114 130
114 131
114 134
114 137
114 140
114 154
114 156
114 158
115 119
115 120
115 122
115 126
115 127
115 135
115 138
115 139
115 141
115 146
115 147
115 148
115 149
115 152
115 153
115 157
116 117
116 118
116 121
116 123
116 128
116 130
116 131
116 134
116 137
116 140
116 154
116 156
116 158
117 118
117 121
117 123
117 128
117 130
117 131
117 156
117 158
118 119
118 121
118 123
118 128
118 130
118 131
118 136
118 143
118 156
118 158
119 120
119 122
119 129
119 131
119 134
119 136
119 137
119 140
119 142
119 143
119 145
119 154
119 155
119 158
120 122
120 156
120 158
120 159
123 128
123 130
123 131
123 134
123 137
123 140
123 154
123 156
123 158
124 125
124 132
124 145
124 147
124 150
124 151
124 153
124 159
125 132
125 145
125 147
125 150
125 151
125 153
125 159
126 127
126 129
126 133
126 135
126 136
126 138
126 139
126 141
126 146
126 147
126 148
126 149
126 152
126 157
127 129
127 133
127 135
127 138
127 139
127 141
127 146
127 147
127 148
127 149
127 152
127 157
128 130
128 131
128 134
128 137
128 140
128 154
128 156
128 158
129 133
129 134
129 136
129 137
129 140
129 142
129 143
129 145
129 154
129 155
130 131
130 156
130 158
131 136
131 143
131 156
131 158
132 145
132 159
134 136
134 137
134 140
134 142
134 143
134 145
134 154
134 155
135 136
135 138
135 139
135 141
135 144
135 146
135 147
135 148
135 149
135 152
135 157
136 137
136 140
136 142
136 143
136 145
136 146
136 148
136 149
136 154
136 155
136 158
137 140
137 142
137 143
137 145
137 154
137 155
138 139
138 141
138 144
138 146
138 147
138 148
138 149
138 152
138 157
139 141
139 144
139 146
139 147
139 148
139 149
139 152
139 157
140 142
140 143
140 145
140 154
140 155
141 144
141 146
141 147
141 148
141 149
141 152
141 153
141 157
142 143
142 145
142 154
142 155
143 145
143 154
143 155
143 158
144 150
144 151
144 153
144 160
145 154
145 155
145 159
146 147
146 148
146 149
146 152
146 157
147 148
147 149
147 150
147 152
147 157
148 149
148 152
148 157
149 152
149 157
150 151
150 153
150 160
151 153
151 160
152 153
152 157
153 160
154 155
156 158
156 159
158 159
0 1
2
3
4
5
6
7
8 9
10
11 12
13
14
15
16 17
18 19
20
21
22
23 24
25
26
27 28
29 30
31
32 33
34
35
36 37
38 39
40
41
42
43 44
45 46
47
48 49
50 51
52 53
54
55
56 57
58 59
60
61
62 63
64
65
66 67
68 69
70
71 72
73
74 75
76
77 78
79
80 81
82
83
84 85
86
87
88
89
90
91
92
93
94
95 96
97 98
99
100
101 102
103
104 105
106 107
108
109 110
111
112 113
114 115
116
117
118 119
120 121
122
123 124
125
126
127
128
129 130
131
132
133
134
135 136
137 138
139
140 141
142
143
144 145
146
147 148
149 150
151
152 153
154
155 156
157 158
159 160
